c turning on binary mode checking
c parsing input formula with 259840 variables and 1039929 clauses
c finished parsing, read 3321835 bytes from proof file
c detected empty clause; start verification via backward checking
c 5510 of 1039929 clauses in core                            
c 1590 of 131813 lemmas in core using 37311 resolution steps
c 0 RAT lemmas in core; 158 redundant literals in core lemmas
s VERIFIED
c verification time: 1.345 seconds
